100 8
512 952
380 595
86 658
863 637
505 661
267 471
509 698
890 402
389 590
536 934
912 216
785 780
739 337
442 721
606 286
478 952
832 637
242 241
634 652
772 497
621 819
264 308
102 870
759 733
861 722
871 264
518 796
362 518
288 422
78 653
357 559
505 684
675 636
801 110
549 255
716 875
54 480
864 275
562 886
532 499
571 679
419 587
710 425
353 440
230 602
652 649
827 222
807 609
609 580
275 848
687 624
470 633
302 332
195 850
948 468
380 366
369 571
922 99
763 454
693 815
585 808
938 140
422 659
241 353
792 271
721 333
87 649
465 591
302 289
821 446
573 259
792 569
287 235
252 504
99 802
746 736
176 914
455 648
193 604
834 415
278 545
712 661
900 136
637 670
532 563
850 252
802 511
451 842
901 192
862 769
547 491
386 258
416 605
623 518
241 918
715 839
309 594
832 267
783 433
473 858
